NAME          SET_PARTITION
ROWS
 N  COST
 E  ELEM1
 E  ELEM2
 E  ELEM3
 E  ELEM4
 E  ELEM5
 E  ELEM6
 E  ELEM7
 E  ELEM8
 E  ELEM9
 E  ELEM10
 E  ELEM11
 E  ELEM12
 E  ELEM13
 E  ELEM14
 E  ELEM15
 E  ELEM16
 E  ELEM17
 E  ELEM18
 E  ELEM19
 E  ELEM20
 E  ELEM21
 E  ELEM22
 E  ELEM23
 E  ELEM24
 E  ELEM25
 E  ELEM26
 E  ELEM27
 E  ELEM28
 E  ELEM29
 E  ELEM30
 E  ELEM31
 E  ELEM32
 E  ELEM33
 E  ELEM34
 E  ELEM35
 E  ELEM36
 E  ELEM37
 E  ELEM38
 E  ELEM39
 E  ELEM40
 E  ELEM41
 E  ELEM42
 E  ELEM43
 E  ELEM44
 E  ELEM45
 E  ELEM46
 E  ELEM47
 E  ELEM48
 E  ELEM49
 E  ELEM50
COLUMNS
    X1       COST      33         ELEM3     1          ELEM8     1          
    X1       ELEM12    1          ELEM18    1          
    X1       ELEM19    1          ELEM31    1          
    X1       ELEM41    1          ELEM44    1          
    X2       COST      46         ELEM2     1          ELEM3     1          
    X2       ELEM4     1          ELEM6     1          
    X2       ELEM9     1          ELEM12    1          
    X2       ELEM13    1          ELEM17    1          
    X2       ELEM20    1          ELEM21    1          
    X2       ELEM22    1          ELEM26    1          
    X2       ELEM29    1          ELEM35    1          
    X2       ELEM36    1          ELEM38    1          
    X2       ELEM39    1          ELEM40    1          
    X2       ELEM42    1          ELEM43    1          
    X2       ELEM46    1          ELEM47    1          
    X3       COST      37         ELEM13    1          ELEM26    1          
    X4       COST      10         ELEM1     1          ELEM5     1          
    X4       ELEM7     1          ELEM8     1          
    X4       ELEM10    1          ELEM11    1          
    X4       ELEM15    1          ELEM16    1          
    X4       ELEM18    1          ELEM23    1          
    X4       ELEM24    1          ELEM25    1          
    X4       ELEM27    1          ELEM28    1          
    X4       ELEM30    1          ELEM32    1          
    X4       ELEM34    1          ELEM37    1          
    X4       ELEM45    1          ELEM48    1          
    X4       ELEM49    1          ELEM50    1          
    X5       COST      39         ELEM2     1          ELEM5     1          
    X5       ELEM7     1          ELEM9     1          
    X5       ELEM10    1          ELEM13    1          
    X5       ELEM17    1          ELEM22    1          
    X5       ELEM24    1          ELEM27    1          
    X5       ELEM29    1          ELEM34    1          
    X5       ELEM35    1          ELEM37    1          
    X5       ELEM38    1          ELEM45    1          
    X5       ELEM49    1          
    X6       COST      46         ELEM1     1          ELEM5     1          
    X6       ELEM8     1          ELEM9     1          
    X6       ELEM13    1          ELEM17    1          
    X6       ELEM23    1          ELEM24    1          
    X6       ELEM26    1          ELEM27    1          
    X6       ELEM28    1          ELEM29    1          
    X6       ELEM31    1          ELEM33    1          
    X6       ELEM35    1          ELEM37    1          
    X6       ELEM42    1          ELEM43    1          
    X6       ELEM45    1          ELEM48    1          
    X6       ELEM49    1          ELEM50    1          
    X7       COST      89         ELEM1     1          ELEM4     1          
    X7       ELEM6     1          ELEM11    1          
    X7       ELEM14    1          ELEM15    1          
    X7       ELEM16    1          ELEM20    1          
    X7       ELEM21    1          ELEM23    1          
    X7       ELEM25    1          ELEM26    1          
    X7       ELEM28    1          ELEM30    1          
    X7       ELEM32    1          ELEM33    1          
    X7       ELEM36    1          ELEM39    1          
    X7       ELEM40    1          ELEM42    1          
    X7       ELEM43    1          ELEM46    1          
    X7       ELEM47    1          ELEM48    1          
    X7       ELEM50    1          
    X8       COST      1          ELEM2     1          ELEM6     1          
    X8       ELEM9     1          ELEM10    1          
    X8       ELEM14    1          ELEM15    1          
    X8       ELEM17    1          ELEM18    1          
    X8       ELEM21    1          ELEM23    1          
    X8       ELEM24    1          ELEM27    1          
    X8       ELEM28    1          ELEM32    1          
    X8       ELEM33    1          ELEM35    1          
    X8       ELEM37    1          ELEM39    1          
    X8       ELEM40    1          ELEM44    1          
    X8       ELEM45    1          ELEM46    1          
    X8       ELEM47    1          ELEM48    1          
    X8       ELEM50    1          
    X9       COST      54         ELEM1     1          ELEM4     1          
    X9       ELEM21    1          ELEM22    1          
    X9       ELEM32    1          ELEM35    1          
    X9       ELEM37    1          ELEM40    1          
    X9       ELEM41    1          ELEM47    1          
    X10      COST      60         ELEM4     1          ELEM9     1          
    X10      ELEM10    1          ELEM12    1          
    X10      ELEM14    1          ELEM15    1          
    X10      ELEM17    1          ELEM18    1          
    X10      ELEM19    1          ELEM21    1          
    X10      ELEM23    1          ELEM25    1          
    X10      ELEM26    1          ELEM33    1          
    X10      ELEM34    1          ELEM35    1          
    X10      ELEM36    1          ELEM41    1          
    X10      ELEM44    1          ELEM45    1          
    X10      ELEM46    1          ELEM47    1          
    X10      ELEM48    1          ELEM49    1          
    X10      ELEM50    1          
    X11      COST      66         ELEM1     1          ELEM2     1          
    X11      ELEM3     1          ELEM5     1          
    X11      ELEM6     1          ELEM7     1          
    X11      ELEM8     1          ELEM11    1          
    X11      ELEM13    1          ELEM16    1          
    X11      ELEM20    1          ELEM22    1          
    X11      ELEM24    1          ELEM27    1          
    X11      ELEM28    1          ELEM29    1          
    X11      ELEM30    1          ELEM31    1          
    X11      ELEM32    1          ELEM37    1          
    X11      ELEM38    1          ELEM39    1          
    X11      ELEM40    1          ELEM42    1          
    X11      ELEM43    1          
    X12      COST      66         ELEM4     1          ELEM6     1          
    X12      ELEM10    1          ELEM11    1          
    X12      ELEM15    1          ELEM16    1          
    X12      ELEM19    1          ELEM20    1          
    X12      ELEM22    1          ELEM30    1          
    X12      ELEM34    1          ELEM36    1          
    X12      ELEM39    1          ELEM40    1          
    X12      ELEM44    1          ELEM46    1          
    X13      COST      86         ELEM14    1          ELEM19    1          
    X13      ELEM31    1          ELEM33    1          
    X13      ELEM41    1          ELEM44    1          
    X14      COST      64         ELEM2     1          ELEM3     1          
    X14      ELEM7     1          ELEM12    1          
    X14      ELEM14    1          ELEM18    1          
    X14      ELEM21    1          ELEM25    1          
    X14      ELEM32    1          ELEM38    1          
    X14      ELEM41    1          ELEM47    1          
    X15      COST      85         ELEM1     1          ELEM3     1          
    X15      ELEM4     1          ELEM5     1          
    X15      ELEM7     1          ELEM8     1          
    X15      ELEM11    1          ELEM12    1          
    X15      ELEM16    1          ELEM19    1          
    X15      ELEM20    1          ELEM22    1          
    X15      ELEM25    1          ELEM29    1          
    X15      ELEM30    1          ELEM31    1          
    X15      ELEM34    1          ELEM36    1          
    X15      ELEM38    1          ELEM41    1          
    X15      ELEM42    1          ELEM43    1          
    X15      ELEM49    1          
RHS
    RHS       ELEM1     1       
    RHS       ELEM2     1       
    RHS       ELEM3     1       
    RHS       ELEM4     1       
    RHS       ELEM5     1       
    RHS       ELEM6     1       
    RHS       ELEM7     1       
    RHS       ELEM8     1       
    RHS       ELEM9     1       
    RHS       ELEM10    1       
    RHS       ELEM11    1       
    RHS       ELEM12    1       
    RHS       ELEM13    1       
    RHS       ELEM14    1       
    RHS       ELEM15    1       
    RHS       ELEM16    1       
    RHS       ELEM17    1       
    RHS       ELEM18    1       
    RHS       ELEM19    1       
    RHS       ELEM20    1       
    RHS       ELEM21    1       
    RHS       ELEM22    1       
    RHS       ELEM23    1       
    RHS       ELEM24    1       
    RHS       ELEM25    1       
    RHS       ELEM26    1       
    RHS       ELEM27    1       
    RHS       ELEM28    1       
    RHS       ELEM29    1       
    RHS       ELEM30    1       
    RHS       ELEM31    1       
    RHS       ELEM32    1       
    RHS       ELEM33    1       
    RHS       ELEM34    1       
    RHS       ELEM35    1       
    RHS       ELEM36    1       
    RHS       ELEM37    1       
    RHS       ELEM38    1       
    RHS       ELEM39    1       
    RHS       ELEM40    1       
    RHS       ELEM41    1       
    RHS       ELEM42    1       
    RHS       ELEM43    1       
    RHS       ELEM44    1       
    RHS       ELEM45    1       
    RHS       ELEM46    1       
    RHS       ELEM47    1       
    RHS       ELEM48    1       
    RHS       ELEM49    1       
    RHS       ELEM50    1       
BOUNDS
 BV BND1      X1
 BV BND1      X2
 BV BND1      X3
 BV BND1      X4
 BV BND1      X5
 BV BND1      X6
 BV BND1      X7
 BV BND1      X8
 BV BND1      X9
 BV BND1      X10
 BV BND1      X11
 BV BND1      X12
 BV BND1      X13
 BV BND1      X14
 BV BND1      X15
ENDATA
